
  32    4
  10   10   10   10

   0   0   0   0   0   1 2 
  10  10  10  10  10   1 3 
   6  10  10  10  10   2 5 4 
   8  10  10  10  10   2 31 6 
   3  10  10  10  10   2 31 7 
   5  10  10  10  10   1 7 
   5  10  10  10  10   1 8 
   2  10  10  10  10   1 9 
   5  10  10  10  10   1 10 
   5  10  10  10  10   3 15 12 11 
   5  10  10  10  10   2 30 13 
   8  10  10  10  10   2 30 16 
   4  10  10  10  10   1 14 
   5  10  10  10  10   1 16 
   8  10  10  10  10   1 16 
   1  10  10  10  10   1 17 
   9  10  10  10  10   1 18 
   8  10  10  10  10   1 19 
   1  10  10  10  10   1 20 
   4  10  10  10  10   1 21 
   3  10  10  10  10   2 29 22 
   9  10  10  10  10   1 23 
   4  10  10  10  10   1 24 
   3  10  10  10  10   1 25 
   8  10  10  10  10   1 26 
   7  10  10  10  10   1 27 
   2  10  10  10  10   1 28 
   1  10  10  10  10   1 32
   1  10  10  10  10   1 32
   9  10  10  10  10   1 32
   4  10  10  10  10   1 32
   0   0   0   0   0   0 
